WARNING: for repeatability, setting FPU to use double precision
============================[ Problem Statistics ]=============================
|                                                                             |
|  Number of variables:         10240                                         |
|  Number of clauses:         3306240                                         |
|  Parse time:                   0.64 s                                       |
|                                                                             |
c ============================[ Search Statistics ]==============================
c | Conflicts |          ORIGINAL         |          LEARNT          | Progress |
c |           |    Vars  Clauses Literals |    Limit  Clauses Lit/Cl |          |
c ===============================================================================
c Switched to VSIDS.
c Switched to LRB.
c Switched to VSIDS.
c Switched to LRB.
c Switched to VSIDS.
c Switched to LRB.
c Switched to VSIDS.
c Switched to LRB.
c Switched to VSIDS.
c Switched to LRB.
c Switched to VSIDS.
c Switched to LRB.
c Switched to VSIDS.
c Switched to LRB.
c Switched to VSIDS.
c Switched to LRB.
c Switched to VSIDS.
c Switched to LRB.
c Switched to VSIDS.
c Switched to LRB.
c Switched to VSIDS.
c Switched to LRB.
c Switched to VSIDS.
c Switched to LRB.
c ===============================================================================
restarts                  : 175812
conflicts                 : 52617133       (15499 /sec)
decisions                 : 539422551      (0.00 % random) (158897 /sec)
propagations              : 2750008674     (810068 /sec)
conflict literals         : 7948685150     (20.35 % deleted)

conflicts w/ DIP found    : 16832853       (31.99 % of conflicts)
conflicts w/ dangerous DIP: 0              (0.00 % of conflicts)
conflicts w/ DIP-learning : 687359         (1.31 % of conflicts)
decisions on ext vars     : 31252517       (5.79 % of decisions)
total ext vars            : 8136        
tried delete ext vars     : 6           
deleted ext vars          : 6           
max ext vars              : 8130        

Memory used               : 2138.00 MB
CPU time                  : 3394.79 s
DIP computation time      : 187.079 s (5.51 % of total time)
ER_sel time               : 67.9552 s
ER_add time               : 0.042944 s
ER_delC time              : 0 s
ER_delV time              : 5.3e-05 s
ER_sub time               : 78.7038 s
ER_stat time              : 0 s

INDETERMINATE
